outputs/case_85.model.txt
internal_audit_executed = True
internal_control_and_handling_ok = True
internal_handling_established = True
violate_148_3_2 = False
violate_148_1 = False
public_explanation_made = True
violate_148_1_rule = False
reported_to_authority_on_time = True
explanation_document_provided = True
internal_control_executed = True
report_and_explanation_truthful = True
violate_148_2_2 = False
penalty = False
internal_audit_established = True
internal_handling_executed = True
violate_148_2_1 = False
internal_control_established = True
violate_148_3_1 = False
explanation_document_truthful = True
explanation_document_properly_recorded = True